# Node Net
281   1
2381   1
 67   1
4891   1
 40   2
 71   2
840   2
4270   3
4061   3
4760   3
 45   4
141   4
3290   4
4761   5
 14   5
  7   5
 37   6
980   6
3641   6
4849   7
4271   7
  2   7
4859   8
 43   8
1050   8
1190   9
4831   9
4839   9
1400  10
3501  10
 17  10
 31  11
4850  11
4885  11
4854  12
4897  12
2801  13
 15  13
3781  14
4830  14
 50  15
1750  15
3291  16
 29  16
